c File: data_files/evolved_graphs/g0557.col
c
c Auto generated graph
c
p edge 100 2759
e 1 3
e 1 5
e 1 6
e 1 7
e 1 8
e 1 9
e 1 10
e 1 11
e 1 12
e 1 13
e 1 18
e 1 21
e 1 23
e 1 24
e 1 25
e 1 27
e 1 28
e 1 29
e 1 30
e 1 33
e 1 34
e 1 35
e 1 36
e 1 38
e 1 39
e 1 40
e 1 41
e 1 42
e 1 45
e 1 47
e 1 48
e 1 51
e 1 56
e 1 58
e 1 59
e 1 60
e 1 61
e 1 63
e 1 64
e 1 65
e 1 67
e 1 68
e 1 70
e 1 71
e 1 73
e 1 74
e 1 75
e 1 76
e 1 77
e 1 78
e 1 79
e 1 80
e 1 81
e 1 83
e 1 84
e 1 86
e 1 88
e 1 89
e 1 91
e 1 96
e 1 99
e 2 3
e 2 5
e 2 6
e 2 7
e 2 8
e 2 9
e 2 11
e 2 12
e 2 15
e 2 17
e 2 19
e 2 21
e 2 22
e 2 23
e 2 26
e 2 27
e 2 30
e 2 32
e 2 33
e 2 34
e 2 38
e 2 42
e 2 43
e 2 44
e 2 45
e 2 46
e 2 47
e 2 48
e 2 49
e 2 53
e 2 54
e 2 55
e 2 57
e 2 58
e 2 60
e 2 61
e 2 62
e 2 63
e 2 64
e 2 65
e 2 66
e 2 67
e 2 69
e 2 71
e 2 77
e 2 78
e 2 84
e 2 85
e 2 86
e 2 88
e 2 89
e 2 91
e 2 94
e 2 95
e 2 100
e 3 4
e 3 5
e 3 6
e 3 9
e 3 10
e 3 14
e 3 15
e 3 16
e 3 17
e 3 19
e 3 21
e 3 24
e 3 25
e 3 26
e 3 27
e 3 28
e 3 29
e 3 30
e 3 31
e 3 32
e 3 33
e 3 34
e 3 35
e 3 37
e 3 38
e 3 39
e 3 40
e 3 41
e 3 42
e 3 43
e 3 46
e 3 47
e 3 48
e 3 49
e 3 51
e 3 52
e 3 55
e 3 56
e 3 57
e 3 58
e 3 60
e 3 62
e 3 64
e 3 65
e 3 71
e 3 74
e 3 75
e 3 78
e 3 80
e 3 81
e 3 82
e 3 83
e 3 84
e 3 87
e 3 91
e 3 93
e 3 94
e 3 96
e 3 98
e 3 100
e 4 5
e 4 6
e 4 7
e 4 9
e 4 14
e 4 15
e 4 18
e 4 20
e 4 21
e 4 22
e 4 23
e 4 24
e 4 25
e 4 28
e 4 29
e 4 33
e 4 37
e 4 38
e 4 39
e 4 42
e 4 43
e 4 45
e 4 46
e 4 47
e 4 49
e 4 50
e 4 52
e 4 53
e 4 54
e 4 55
e 4 56
e 4 58
e 4 59
e 4 60
e 4 65
e 4 67
e 4 71
e 4 72
e 4 74
e 4 75
e 4 76
e 4 77
e 4 78
e 4 79
e 4 83
e 4 84
e 4 85
e 4 87
e 4 89
e 4 90
e 4 93
e 4 95
e 4 96
e 4 97
e 4 98
e 4 99
e 5 7
e 5 8
e 5 9
e 5 10
e 5 12
e 5 14
e 5 17
e 5 19
e 5 21
e 5 22
e 5 23
e 5 24
e 5 26
e 5 28
e 5 29
e 5 30
e 5 33
e 5 34
e 5 35
e 5 36
e 5 38
e 5 39
e 5 40
e 5 41
e 5 42
e 5 45
e 5 46
e 5 47
e 5 49
e 5 51
e 5 53
e 5 55
e 5 57
e 5 58
e 5 61
e 5 64
e 5 65
e 5 69
e 5 70
e 5 71
e 5 74
e 5 76
e 5 77
e 5 78
e 5 79
e 5 82
e 5 83
e 5 84
e 5 86
e 5 89
e 5 92
e 5 93
e 5 95
e 5 96
e 5 97
e 5 98
e 5 99
e 6 7
e 6 8
e 6 10
e 6 11
e 6 12
e 6 14
e 6 17
e 6 18
e 6 19
e 6 21
e 6 24
e 6 28
e 6 29
e 6 30
e 6 31
e 6 32
e 6 35
e 6 36
e 6 39
e 6 40
e 6 41
e 6 42
e 6 43
e 6 45
e 6 49
e 6 50
e 6 52
e 6 53
e 6 54
e 6 56
e 6 57
e 6 58
e 6 61
e 6 62
e 6 64
e 6 67
e 6 68
e 6 72
e 6 73
e 6 76
e 6 78
e 6 80
e 6 82
e 6 83
e 6 84
e 6 86
e 6 89
e 6 93
e 6 95
e 6 97
e 6 100
e 7 8
e 7 11
e 7 12
e 7 13
e 7 14
e 7 15
e 7 17
e 7 18
e 7 20
e 7 21
e 7 22
e 7 23
e 7 24
e 7 25
e 7 27
e 7 28
e 7 30
e 7 31
e 7 32
e 7 33
e 7 35
e 7 36
e 7 38
e 7 41
e 7 42
e 7 43
e 7 44
e 7 46
e 7 48
e 7 49
e 7 50
e 7 51
e 7 53
e 7 55
e 7 56
e 7 57
e 7 58
e 7 59
e 7 60
e 7 61
e 7 62
e 7 63
e 7 64
e 7 65
e 7 68
e 7 69
e 7 73
e 7 74
e 7 78
e 7 79
e 7 80
e 7 81
e 7 82
e 7 85
e 7 86
e 7 87
e 7 93
e 7 96
e 7 97
e 7 98
e 7 99
e 7 100
e 8 9
e 8 11
e 8 12
e 8 14
e 8 17
e 8 19
e 8 21
e 8 25
e 8 26
e 8 28
e 8 29
e 8 30
e 8 33
e 8 36
e 8 38
e 8 39
e 8 40
e 8 41
e 8 43
e 8 44
e 8 45
e 8 48
e 8 50
e 8 51
e 8 53
e 8 55
e 8 58
e 8 59
e 8 62
e 8 64
e 8 65
e 8 66
e 8 67
e 8 70
e 8 75
e 8 76
e 8 78
e 8 81
e 8 82
e 8 84
e 8 86
e 8 91
e 8 94
e 8 95
e 8 96
e 8 97
e 8 98
e 8 99
e 8 100
e 9 12
e 9 13
e 9 14
e 9 17
e 9 18
e 9 19
e 9 20
e 9 22
e 9 23
e 9 24
e 9 26
e 9 28
e 9 31
e 9 33
e 9 35
e 9 37
e 9 38
e 9 39
e 9 42
e 9 44
e 9 45
e 9 46
e 9 47
e 9 48
e 9 49
e 9 50
e 9 51
e 9 52
e 9 55
e 9 56
e 9 57
e 9 59
e 9 60
e 9 61
e 9 62
e 9 63
e 9 65
e 9 68
e 9 70
e 9 71
e 9 74
e 9 75
e 9 79
e 9 80
e 9 81
e 9 82
e 9 83
e 9 84
e 9 85
e 9 88
e 9 91
e 9 92
e 9 93
e 9 94
e 9 97
e 9 99
e 9 100
e 10 15
e 10 17
e 10 19
e 10 20
e 10 25
e 10 26
e 10 29
e 10 30
e 10 31
e 10 33
e 10 34
e 10 37
e 10 39
e 10 40
e 10 42
e 10 44
e 10 45
e 10 46
e 10 48
e 10 49
e 10 50
e 10 51
e 10 52
e 10 54
e 10 56
e 10 58
e 10 59
e 10 60
e 10 62
e 10 64
e 10 66
e 10 67
e 10 68
e 10 69
e 10 75
e 10 81
e 10 83
e 10 86
e 10 89
e 10 97
e 10 98
e 10 100
e 11 14
e 11 15
e 11 17
e 11 20
e 11 21
e 11 22
e 11 24
e 11 26
e 11 27
e 11 28
e 11 29
e 11 30
e 11 31
e 11 32
e 11 33
e 11 36
e 11 37
e 11 38
e 11 40
e 11 41
e 11 43
e 11 44
e 11 46
e 11 47
e 11 48
e 11 50
e 11 57
e 11 58
e 11 59
e 11 60
e 11 64
e 11 65
e 11 68
e 11 72
e 11 73
e 11 78
e 11 80
e 11 81
e 11 85
e 11 88
e 11 90
e 11 93
e 11 95
e 11 96
e 11 99
e 11 100
e 12 14
e 12 15
e 12 18
e 12 20
e 12 21
e 12 22
e 12 23
e 12 24
e 12 27
e 12 28
e 12 30
e 12 31
e 12 34
e 12 35
e 12 37
e 12 38
e 12 39
e 12 41
e 12 42
e 12 43
e 12 44
e 12 45
e 12 46
e 12 48
e 12 49
e 12 50
e 12 52
e 12 53
e 12 56
e 12 58
e 12 60
e 12 62
e 12 63
e 12 64
e 12 66
e 12 73
e 12 74
e 12 75
e 12 76
e 12 77
e 12 79
e 12 82
e 12 83
e 12 86
e 12 87
e 12 89
e 12 91
e 12 92
e 12 94
e 12 96
e 12 97
e 12 100
e 13 19
e 13 22
e 13 23
e 13 24
e 13 25
e 13 29
e 13 30
e 13 31
e 13 32
e 13 35
e 13 36
e 13 37
e 13 41
e 13 42
e 13 43
e 13 44
e 13 50
e 13 51
e 13 52
e 13 53
e 13 54
e 13 57
e 13 58
e 13 59
e 13 60
e 13 61
e 13 62
e 13 63
e 13 64
e 13 65
e 13 66
e 13 68
e 13 70
e 13 73
e 13 74
e 13 75
e 13 77
e 13 80
e 13 81
e 13 82
e 13 87
e 13 88
e 13 89
e 13 90
e 13 91
e 13 97
e 13 98
e 13 100
e 14 15
e 14 16
e 14 17
e 14 18
e 14 20
e 14 22
e 14 23
e 14 27
e 14 28
e 14 29
e 14 30
e 14 32
e 14 33
e 14 35
e 14 36
e 14 37
e 14 38
e 14 39
e 14 42
e 14 44
e 14 46
e 14 47
e 14 48
e 14 50
e 14 51
e 14 53
e 14 54
e 14 57
e 14 58
e 14 60
e 14 61
e 14 63
e 14 64
e 14 65
e 14 66
e 14 69
e 14 70
e 14 73
e 14 74
e 14 76
e 14 78
e 14 79
e 14 80
e 14 84
e 14 85
e 14 87
e 14 93
e 14 97
e 14 98
e 14 99
e 15 17
e 15 18
e 15 20
e 15 21
e 15 22
e 15 23
e 15 24
e 15 27
e 15 29
e 15 30
e 15 31
e 15 33
e 15 35
e 15 37
e 15 39
e 15 42
e 15 44
e 15 45
e 15 48
e 15 49
e 15 53
e 15 54
e 15 55
e 15 56
e 15 58
e 15 59
e 15 61
e 15 62
e 15 64
e 15 66
e 15 69
e 15 70
e 15 73
e 15 76
e 15 78
e 15 79
e 15 82
e 15 85
e 15 87
e 15 89
e 15 90
e 15 91
e 15 98
e 15 99
e 16 20
e 16 25
e 16 26
e 16 27
e 16 30
e 16 31
e 16 36
e 16 37
e 16 38
e 16 39
e 16 40
e 16 42
e 16 43
e 16 46
e 16 47
e 16 48
e 16 49
e 16 51
e 16 55
e 16 56
e 16 58
e 16 59
e 16 61
e 16 62
e 16 63
e 16 64
e 16 65
e 16 66
e 16 67
e 16 68
e 16 69
e 16 70
e 16 71
e 16 73
e 16 75
e 16 76
e 16 77
e 16 78
e 16 80
e 16 85
e 16 86
e 16 88
e 16 92
e 16 93
e 16 97
e 16 99
e 17 19
e 17 20
e 17 24
e 17 26
e 17 27
e 17 31
e 17 32
e 17 34
e 17 37
e 17 38
e 17 39
e 17 40
e 17 41
e 17 42
e 17 43
e 17 44
e 17 47
e 17 48
e 17 51
e 17 54
e 17 55
e 17 59
e 17 60
e 17 66
e 17 69
e 17 70
e 17 72
e 17 73
e 17 74
e 17 75
e 17 76
e 17 78
e 17 79
e 17 81
e 17 83
e 17 84
e 17 85
e 17 86
e 17 88
e 17 91
e 17 92
e 17 97
e 17 98
e 18 20
e 18 21
e 18 24
e 18 26
e 18 27
e 18 28
e 18 31
e 18 33
e 18 34
e 18 35
e 18 36
e 18 37
e 18 38
e 18 39
e 18 40
e 18 42
e 18 43
e 18 46
e 18 47
e 18 49
e 18 52
e 18 53
e 18 55
e 18 60
e 18 61
e 18 64
e 18 67
e 18 72
e 18 73
e 18 74
e 18 76
e 18 79
e 18 81
e 18 82
e 18 83
e 18 85
e 18 87
e 18 90
e 18 93
e 18 96
e 18 97
e 18 99
e 19 23
e 19 26
e 19 28
e 19 29
e 19 30
e 19 31
e 19 32
e 19 34
e 19 35
e 19 38
e 19 39
e 19 40
e 19 41
e 19 42
e 19 43
e 19 44
e 19 45
e 19 46
e 19 47
e 19 48
e 19 51
e 19 52
e 19 54
e 19 55
e 19 57
e 19 59
e 19 60
e 19 62
e 19 63
e 19 64
e 19 65
e 19 67
e 19 69
e 19 71
e 19 75
e 19 76
e 19 77
e 19 78
e 19 79
e 19 83
e 19 84
e 19 86
e 19 87
e 19 88
e 19 90
e 19 92
e 19 98
e 19 99
e 19 100
e 20 25
e 20 30
e 20 33
e 20 34
e 20 35
e 20 36
e 20 37
e 20 38
e 20 40
e 20 41
e 20 42
e 20 44
e 20 47
e 20 48
e 20 49
e 20 50
e 20 52
e 20 53
e 20 54
e 20 55
e 20 56
e 20 58
e 20 59
e 20 60
e 20 61
e 20 62
e 20 65
e 20 69
e 20 71
e 20 72
e 20 73
e 20 74
e 20 76
e 20 77
e 20 78
e 20 80
e 20 81
e 20 84
e 20 86
e 20 87
e 20 88
e 20 89
e 20 91
e 20 93
e 20 95
e 20 98
e 20 100
e 21 23
e 21 24
e 21 27
e 21 30
e 21 31
e 21 32
e 21 34
e 21 37
e 21 38
e 21 41
e 21 42
e 21 44
e 21 46
e 21 47
e 21 50
e 21 51
e 21 52
e 21 53
e 21 56
e 21 57
e 21 59
e 21 60
e 21 61
e 21 62
e 21 64
e 21 65
e 21 66
e 21 67
e 21 69
e 21 70
e 21 71
e 21 75
e 21 76
e 21 79
e 21 81
e 21 85
e 21 87
e 21 88
e 21 89
e 21 90
e 21 91
e 21 92
e 21 94
e 21 96
e 21 97
e 21 99
e 22 25
e 22 26
e 22 27
e 22 29
e 22 32
e 22 33
e 22 37
e 22 38
e 22 39
e 22 40
e 22 43
e 22 45
e 22 46
e 22 47
e 22 48
e 22 49
e 22 50
e 22 51
e 22 52
e 22 53
e 22 56
e 22 57
e 22 59
e 22 60
e 22 61
e 22 63
e 22 65
e 22 67
e 22 70
e 22 74
e 22 76
e 22 78
e 22 80
e 22 81
e 22 83
e 22 84
e 22 91
e 22 92
e 22 93
e 22 94
e 22 96
e 22 98
e 23 24
e 23 26
e 23 27
e 23 28
e 23 29
e 23 30
e 23 31
e 23 32
e 23 33
e 23 34
e 23 36
e 23 37
e 23 38
e 23 39
e 23 40
e 23 41
e 23 47
e 23 48
e 23 50
e 23 53
e 23 54
e 23 55
e 23 57
e 23 58
e 23 59
e 23 60
e 23 61
e 23 64
e 23 66
e 23 67
e 23 68
e 23 70
e 23 71
e 23 72
e 23 73
e 23 75
e 23 76
e 23 77
e 23 79
e 23 81
e 23 84
e 23 89
e 23 92
e 23 94
e 23 95
e 23 99
e 23 100
e 24 25
e 24 26
e 24 27
e 24 30
e 24 31
e 24 32
e 24 33
e 24 36
e 24 37
e 24 38
e 24 39
e 24 42
e 24 47
e 24 48
e 24 50
e 24 51
e 24 53
e 24 54
e 24 55
e 24 56
e 24 59
e 24 63
e 24 66
e 24 69
e 24 71
e 24 76
e 24 77
e 24 78
e 24 80
e 24 82
e 24 86
e 24 89
e 24 90
e 24 92
e 24 94
e 25 26
e 25 27
e 25 28
e 25 31
e 25 32
e 25 35
e 25 36
e 25 37
e 25 41
e 25 42
e 25 44
e 25 45
e 25 46
e 25 47
e 25 48
e 25 52
e 25 53
e 25 54
e 25 55
e 25 56
e 25 57
e 25 59
e 25 61
e 25 64
e 25 66
e 25 67
e 25 68
e 25 71
e 25 73
e 25 75
e 25 76
e 25 77
e 25 78
e 25 79
e 25 80
e 25 83
e 25 84
e 25 85
e 25 86
e 25 89
e 25 95
e 25 96
e 25 97
e 25 99
e 26 29
e 26 30
e 26 31
e 26 32
e 26 33
e 26 36
e 26 37
e 26 38
e 26 39
e 26 40
e 26 41
e 26 42
e 26 43
e 26 44
e 26 45
e 26 46
e 26 47
e 26 48
e 26 49
e 26 50
e 26 51
e 26 52
e 26 56
e 26 57
e 26 59
e 26 61
e 26 65
e 26 66
e 26 68
e 26 69
e 26 71
e 26 73
e 26 74
e 26 76
e 26 79
e 26 80
e 26 81
e 26 87
e 26 88
e 26 89
e 26 97
e 26 98
e 26 99
e 26 100
e 27 28
e 27 31
e 27 32
e 27 33
e 27 35
e 27 36
e 27 39
e 27 41
e 27 42
e 27 44
e 27 46
e 27 49
e 27 50
e 27 51
e 27 52
e 27 54
e 27 56
e 27 58
e 27 61
e 27 62
e 27 63
e 27 64
e 27 67
e 27 68
e 27 69
e 27 71
e 27 72
e 27 73
e 27 75
e 27 79
e 27 81
e 27 82
e 27 83
e 27 84
e 27 85
e 27 87
e 27 88
e 27 91
e 27 93
e 27 94
e 27 96
e 27 98
e 28 32
e 28 33
e 28 35
e 28 36
e 28 38
e 28 39
e 28 42
e 28 43
e 28 44
e 28 46
e 28 48
e 28 49
e 28 50
e 28 52
e 28 53
e 28 54
e 28 56
e 28 59
e 28 60
e 28 61
e 28 62
e 28 64
e 28 65
e 28 68
e 28 69
e 28 70
e 28 71
e 28 72
e 28 73
e 28 75
e 28 77
e 28 78
e 28 79
e 28 83
e 28 86
e 28 88
e 28 89
e 28 90
e 28 91
e 28 92
e 28 93
e 28 95
e 28 96
e 28 98
e 28 99
e 29 32
e 29 33
e 29 34
e 29 36
e 29 40
e 29 46
e 29 49
e 29 52
e 29 54
e 29 55
e 29 56
e 29 57
e 29 59
e 29 60
e 29 61
e 29 63
e 29 64
e 29 67
e 29 68
e 29 70
e 29 73
e 29 74
e 29 75
e 29 78
e 29 80
e 29 81
e 29 82
e 29 84
e 29 85
e 29 87
e 29 90
e 29 93
e 29 94
e 29 95
e 29 96
e 29 97
e 29 99
e 30 31
e 30 33
e 30 35
e 30 36
e 30 37
e 30 38
e 30 39
e 30 40
e 30 43
e 30 44
e 30 46
e 30 47
e 30 49
e 30 51
e 30 53
e 30 54
e 30 55
e 30 56
e 30 59
e 30 60
e 30 61
e 30 63
e 30 64
e 30 66
e 30 67
e 30 68
e 30 69
e 30 71
e 30 72
e 30 75
e 30 77
e 30 78
e 30 80
e 30 84
e 30 85
e 30 86
e 30 87
e 30 89
e 30 92
e 30 93
e 30 94
e 30 96
e 30 97
e 30 98
e 30 99
e 30 100
e 31 32
e 31 33
e 31 35
e 31 36
e 31 37
e 31 39
e 31 40
e 31 41
e 31 42
e 31 44
e 31 46
e 31 49
e 31 50
e 31 51
e 31 56
e 31 57
e 31 59
e 31 60
e 31 61
e 31 63
e 31 64
e 31 66
e 31 73
e 31 75
e 31 81
e 31 83
e 31 84
e 31 85
e 31 86
e 31 87
e 31 89
e 31 90
e 31 91
e 31 92
e 31 99
e 31 100
e 32 33
e 32 34
e 32 35
e 32 37
e 32 39
e 32 40
e 32 44
e 32 45
e 32 46
e 32 47
e 32 48
e 32 49
e 32 50
e 32 55
e 32 56
e 32 59
e 32 64
e 32 67
e 32 68
e 32 69
e 32 70
e 32 72
e 32 73
e 32 75
e 32 76
e 32 78
e 32 79
e 32 81
e 32 82
e 32 83
e 32 85
e 32 86
e 32 87
e 32 89
e 32 91
e 32 92
e 32 95
e 32 97
e 32 98
e 32 99
e 32 100
e 33 34
e 33 35
e 33 37
e 33 39
e 33 41
e 33 43
e 33 45
e 33 46
e 33 48
e 33 50
e 33 51
e 33 54
e 33 55
e 33 56
e 33 57
e 33 58
e 33 59
e 33 60
e 33 61
e 33 62
e 33 64
e 33 65
e 33 68
e 33 71
e 33 72
e 33 73
e 33 74
e 33 75
e 33 76
e 33 82
e 33 83
e 33 84
e 33 86
e 33 87
e 33 88
e 33 90
e 33 95
e 33 96
e 33 97
e 33 99
e 34 35
e 34 36
e 34 37
e 34 40
e 34 41
e 34 42
e 34 44
e 34 45
e 34 46
e 34 49
e 34 57
e 34 58
e 34 59
e 34 61
e 34 62
e 34 63
e 34 65
e 34 66
e 34 68
e 34 71
e 34 72
e 34 73
e 34 79
e 34 81
e 34 83
e 34 84
e 34 86
e 34 90
e 34 91
e 34 92
e 34 93
e 34 96
e 34 97
e 34 99
e 35 36
e 35 39
e 35 40
e 35 41
e 35 42
e 35 43
e 35 44
e 35 46
e 35 49
e 35 50
e 35 53
e 35 54
e 35 55
e 35 56
e 35 57
e 35 58
e 35 61
e 35 63
e 35 64
e 35 65
e 35 66
e 35 67
e 35 69
e 35 70
e 35 71
e 35 72
e 35 73
e 35 75
e 35 81
e 35 82
e 35 83
e 35 84
e 35 86
e 35 87
e 35 99
e 35 100
e 36 38
e 36 39
e 36 44
e 36 48
e 36 49
e 36 53
e 36 57
e 36 59
e 36 64
e 36 65
e 36 66
e 36 67
e 36 72
e 36 74
e 36 75
e 36 76
e 36 77
e 36 80
e 36 81
e 36 84
e 36 85
e 36 86
e 36 87
e 36 89
e 36 90
e 36 92
e 36 93
e 36 95
e 36 96
e 36 97
e 36 99
e 36 100
e 37 41
e 37 42
e 37 44
e 37 45
e 37 46
e 37 47
e 37 48
e 37 51
e 37 52
e 37 55
e 37 56
e 37 58
e 37 59
e 37 63
e 37 64
e 37 72
e 37 73
e 37 75
e 37 77
e 37 78
e 37 80
e 37 83
e 37 84
e 37 86
e 37 87
e 37 88
e 37 90
e 37 91
e 37 93
e 37 94
e 37 96
e 37 97
e 37 100
e 38 40
e 38 41
e 38 43
e 38 45
e 38 46
e 38 47
e 38 49
e 38 50
e 38 53
e 38 54
e 38 55
e 38 57
e 38 58
e 38 59
e 38 60
e 38 61
e 38 63
e 38 64
e 38 68
e 38 69
e 38 70
e 38 71
e 38 76
e 38 82
e 38 83
e 38 84
e 38 93
e 38 94
e 38 98
e 38 100
e 39 40
e 39 41
e 39 42
e 39 43
e 39 46
e 39 48
e 39 49
e 39 50
e 39 51
e 39 54
e 39 56
e 39 57
e 39 58
e 39 59
e 39 60
e 39 61
e 39 62
e 39 63
e 39 66
e 39 70
e 39 71
e 39 72
e 39 74
e 39 77
e 39 80
e 39 81
e 39 82
e 39 83
e 39 85
e 39 86
e 39 88
e 39 89
e 39 90
e 39 95
e 39 96
e 39 97
e 39 100
e 40 42
e 40 43
e 40 44
e 40 45
e 40 46
e 40 48
e 40 49
e 40 52
e 40 53
e 40 55
e 40 57
e 40 58
e 40 60
e 40 62
e 40 64
e 40 67
e 40 70
e 40 72
e 40 74
e 40 75
e 40 76
e 40 77
e 40 80
e 40 86
e 40 90
e 40 91
e 40 92
e 40 95
e 40 96
e 40 97
e 40 98
e 40 99
e 40 100
e 41 42
e 41 45
e 41 46
e 41 47
e 41 49
e 41 50
e 41 51
e 41 52
e 41 54
e 41 55
e 41 56
e 41 58
e 41 63
e 41 64
e 41 65
e 41 78
e 41 80
e 41 81
e 41 82
e 41 84
e 41 85
e 41 86
e 41 87
e 41 91
e 41 93
e 41 95
e 41 97
e 41 100
e 42 43
e 42 45
e 42 49
e 42 50
e 42 52
e 42 56
e 42 58
e 42 59
e 42 61
e 42 63
e 42 66
e 42 67
e 42 68
e 42 69
e 42 71
e 42 72
e 42 73
e 42 76
e 42 77
e 42 78
e 42 80
e 42 82
e 42 83
e 42 84
e 42 85
e 42 87
e 42 90
e 42 92
e 42 93
e 42 95
e 42 96
e 43 44
e 43 45
e 43 46
e 43 47
e 43 48
e 43 49
e 43 51
e 43 54
e 43 56
e 43 57
e 43 58
e 43 59
e 43 61
e 43 62
e 43 63
e 43 66
e 43 68
e 43 73
e 43 74
e 43 75
e 43 76
e 43 77
e 43 78
e 43 79
e 43 80
e 43 81
e 43 87
e 43 91
e 43 92
e 43 93
e 43 97
e 43 98
e 43 100
e 44 45
e 44 48
e 44 55
e 44 60
e 44 61
e 44 64
e 44 65
e 44 66
e 44 72
e 44 73
e 44 74
e 44 76
e 44 77
e 44 79
e 44 80
e 44 83
e 44 86
e 44 87
e 44 89
e 44 90
e 44 94
e 44 95
e 44 96
e 44 97
e 44 98
e 44 99
e 45 46
e 45 48
e 45 50
e 45 52
e 45 53
e 45 54
e 45 57
e 45 58
e 45 60
e 45 62
e 45 63
e 45 65
e 45 66
e 45 68
e 45 69
e 45 71
e 45 72
e 45 73
e 45 74
e 45 75
e 45 76
e 45 79
e 45 82
e 45 83
e 45 89
e 45 92
e 45 93
e 45 96
e 45 97
e 45 98
e 45 99
e 46 47
e 46 48
e 46 52
e 46 53
e 46 55
e 46 56
e 46 58
e 46 59
e 46 60
e 46 62
e 46 64
e 46 65
e 46 66
e 46 70
e 46 72
e 46 73
e 46 76
e 46 80
e 46 82
e 46 85
e 46 91
e 46 96
e 46 97
e 46 98
e 46 99
e 47 48
e 47 49
e 47 50
e 47 52
e 47 53
e 47 54
e 47 55
e 47 56
e 47 58
e 47 60
e 47 61
e 47 62
e 47 63
e 47 64
e 47 67
e 47 72
e 47 73
e 47 74
e 47 76
e 47 77
e 47 78
e 47 79
e 47 81
e 47 83
e 47 85
e 47 86
e 47 88
e 47 89
e 47 92
e 47 93
e 47 97
e 47 98
e 47 99
e 47 100
e 48 49
e 48 50
e 48 52
e 48 55
e 48 56
e 48 58
e 48 59
e 48 61
e 48 62
e 48 63
e 48 64
e 48 65
e 48 66
e 48 67
e 48 68
e 48 70
e 48 71
e 48 72
e 48 74
e 48 75
e 48 76
e 48 77
e 48 79
e 48 80
e 48 83
e 48 85
e 48 87
e 48 89
e 48 90
e 48 99
e 49 50
e 49 53
e 49 54
e 49 55
e 49 59
e 49 61
e 49 62
e 49 63
e 49 64
e 49 65
e 49 66
e 49 67
e 49 71
e 49 73
e 49 74
e 49 76
e 49 78
e 49 79
e 49 80
e 49 83
e 49 88
e 49 90
e 49 92
e 49 97
e 49 98
e 49 99
e 50 51
e 50 54
e 50 55
e 50 57
e 50 59
e 50 60
e 50 62
e 50 63
e 50 64
e 50 66
e 50 68
e 50 69
e 50 74
e 50 75
e 50 76
e 50 77
e 50 78
e 50 79
e 50 84
e 50 85
e 50 87
e 50 90
e 50 92
e 50 99
e 51 54
e 51 55
e 51 56
e 51 57
e 51 59
e 51 60
e 51 61
e 51 62
e 51 64
e 51 65
e 51 66
e 51 67
e 51 68
e 51 71
e 51 77
e 51 78
e 51 79
e 51 82
e 51 85
e 51 88
e 51 92
e 51 94
e 51 95
e 51 99
e 52 53
e 52 54
e 52 56
e 52 57
e 52 59
e 52 62
e 52 64
e 52 65
e 52 68
e 52 69
e 52 71
e 52 72
e 52 73
e 52 74
e 52 75
e 52 76
e 52 77
e 52 80
e 52 81
e 52 82
e 52 84
e 52 87
e 52 88
e 52 89
e 52 90
e 52 92
e 52 93
e 52 94
e 52 95
e 52 97
e 52 98
e 52 99
e 53 57
e 53 60
e 53 61
e 53 62
e 53 63
e 53 64
e 53 65
e 53 66
e 53 68
e 53 69
e 53 73
e 53 75
e 53 81
e 53 85
e 53 86
e 53 88
e 53 91
e 53 94
e 53 95
e 53 96
e 53 97
e 53 100
e 54 55
e 54 57
e 54 60
e 54 63
e 54 64
e 54 65
e 54 67
e 54 68
e 54 72
e 54 73
e 54 74
e 54 77
e 54 80
e 54 83
e 54 84
e 54 85
e 54 87
e 54 88
e 54 94
e 54 97
e 55 57
e 55 60
e 55 61
e 55 62
e 55 65
e 55 66
e 55 69
e 55 71
e 55 72
e 55 73
e 55 74
e 55 76
e 55 79
e 55 81
e 55 82
e 55 83
e 55 85
e 55 88
e 55 89
e 55 90
e 55 93
e 55 94
e 55 95
e 55 97
e 55 98
e 55 100
e 56 57
e 56 58
e 56 60
e 56 62
e 56 63
e 56 65
e 56 66
e 56 67
e 56 68
e 56 69
e 56 70
e 56 72
e 56 73
e 56 74
e 56 75
e 56 76
e 56 82
e 56 85
e 56 86
e 56 89
e 56 92
e 56 94
e 56 95
e 56 97
e 56 99
e 56 100
e 57 58
e 57 59
e 57 61
e 57 62
e 57 63
e 57 65
e 57 69
e 57 71
e 57 74
e 57 75
e 57 76
e 57 78
e 57 80
e 57 81
e 57 83
e 57 84
e 57 85
e 57 87
e 57 88
e 57 89
e 57 91
e 57 92
e 57 95
e 57 96
e 57 98
e 57 99
e 57 100
e 58 60
e 58 62
e 58 65
e 58 66
e 58 67
e 58 71
e 58 73
e 58 74
e 58 77
e 58 80
e 58 81
e 58 83
e 58 84
e 58 85
e 58 87
e 58 88
e 58 89
e 58 90
e 58 91
e 58 93
e 58 96
e 58 98
e 58 100
e 59 61
e 59 64
e 59 67
e 59 69
e 59 70
e 59 73
e 59 74
e 59 75
e 59 77
e 59 82
e 59 83
e 59 87
e 59 90
e 59 93
e 59 95
e 59 96
e 59 98
e 59 99
e 59 100
e 60 62
e 60 64
e 60 66
e 60 67
e 60 72
e 60 74
e 60 75
e 60 78
e 60 79
e 60 81
e 60 82
e 60 83
e 60 84
e 60 85
e 60 89
e 60 92
e 60 93
e 60 94
e 60 95
e 60 97
e 60 99
e 60 100
e 61 63
e 61 70
e 61 71
e 61 73
e 61 74
e 61 76
e 61 79
e 61 80
e 61 83
e 61 85
e 61 87
e 61 88
e 61 91
e 61 92
e 61 96
e 61 97
e 61 100
e 62 64
e 62 65
e 62 66
e 62 67
e 62 68
e 62 69
e 62 72
e 62 73
e 62 76
e 62 77
e 62 78
e 62 79
e 62 80
e 62 81
e 62 82
e 62 84
e 62 87
e 62 94
e 62 95
e 62 96
e 62 100
e 63 64
e 63 69
e 63 71
e 63 72
e 63 73
e 63 74
e 63 76
e 63 77
e 63 78
e 63 79
e 63 80
e 63 85
e 63 86
e 63 88
e 63 89
e 63 90
e 63 91
e 63 92
e 63 94
e 63 96
e 63 98
e 63 99
e 63 100
e 64 65
e 64 67
e 64 68
e 64 69
e 64 73
e 64 75
e 64 76
e 64 77
e 64 79
e 64 81
e 64 83
e 64 85
e 64 87
e 64 88
e 64 89
e 64 90
e 64 91
e 64 92
e 64 93
e 64 98
e 64 99
e 65 66
e 65 68
e 65 70
e 65 74
e 65 77
e 65 79
e 65 85
e 65 87
e 65 88
e 65 89
e 65 90
e 65 91
e 65 94
e 65 97
e 65 98
e 65 99
e 66 67
e 66 68
e 66 69
e 66 70
e 66 72
e 66 75
e 66 76
e 66 77
e 66 79
e 66 80
e 66 86
e 66 88
e 66 89
e 66 90
e 66 91
e 66 94
e 66 95
e 66 97
e 66 98
e 66 99
e 67 69
e 67 70
e 67 73
e 67 75
e 67 77
e 67 81
e 67 82
e 67 83
e 67 84
e 67 87
e 67 89
e 67 91
e 67 93
e 67 95
e 67 96
e 67 97
e 67 98
e 67 99
e 67 100
e 68 70
e 68 71
e 68 73
e 68 75
e 68 76
e 68 77
e 68 78
e 68 81
e 68 82
e 68 83
e 68 86
e 68 87
e 68 88
e 68 89
e 68 92
e 68 94
e 68 96
e 68 97
e 68 99
e 68 100
e 69 70
e 69 71
e 69 73
e 69 79
e 69 80
e 69 81
e 69 82
e 69 86
e 69 87
e 69 88
e 69 89
e 69 91
e 69 93
e 69 95
e 69 96
e 70 72
e 70 74
e 70 76
e 70 77
e 70 78
e 70 80
e 70 82
e 70 86
e 70 87
e 70 88
e 70 90
e 70 93
e 70 94
e 70 95
e 70 97
e 70 98
e 70 99
e 70 100
e 71 74
e 71 76
e 71 77
e 71 78
e 71 79
e 71 84
e 71 86
e 71 87
e 71 92
e 71 93
e 71 94
e 71 96
e 71 97
e 71 98
e 71 100
e 72 81
e 72 83
e 72 84
e 72 88
e 72 90
e 72 91
e 72 92
e 72 94
e 72 95
e 72 97
e 72 98
e 72 100
e 73 74
e 73 79
e 73 80
e 73 81
e 73 84
e 73 87
e 73 88
e 73 89
e 73 90
e 73 91
e 73 92
e 73 95
e 74 75
e 74 76
e 74 77
e 74 80
e 74 82
e 74 83
e 74 85
e 74 86
e 74 87
e 74 88
e 74 89
e 74 91
e 74 92
e 74 93
e 74 95
e 74 97
e 74 98
e 74 100
e 75 76
e 75 78
e 75 79
e 75 81
e 75 83
e 75 84
e 75 85
e 75 86
e 75 87
e 75 89
e 75 90
e 75 91
e 75 94
e 75 95
e 75 98
e 75 99
e 75 100
e 76 79
e 76 80
e 76 81
e 76 82
e 76 83
e 76 84
e 76 85
e 76 87
e 76 88
e 76 90
e 76 91
e 76 96
e 76 99
e 76 100
e 77 80
e 77 83
e 77 84
e 77 85
e 77 88
e 77 89
e 77 90
e 77 92
e 77 93
e 77 94
e 77 95
e 77 96
e 77 97
e 77 99
e 78 80
e 78 86
e 78 88
e 78 92
e 78 93
e 78 94
e 78 95
e 78 96
e 78 97
e 78 99
e 78 100
e 79 81
e 79 82
e 79 85
e 79 87
e 79 89
e 79 94
e 79 96
e 79 98
e 79 100
e 80 82
e 80 83
e 80 84
e 80 89
e 80 90
e 80 91
e 80 92
e 80 94
e 80 95
e 80 96
e 80 97
e 80 98
e 81 83
e 81 84
e 81 85
e 81 87
e 81 88
e 81 89
e 81 90
e 81 92
e 81 94
e 81 95
e 81 96
e 81 98
e 81 99
e 82 85
e 82 86
e 82 87
e 82 91
e 82 93
e 82 94
e 82 97
e 82 99
e 83 84
e 83 87
e 83 88
e 83 90
e 83 91
e 83 93
e 83 94
e 83 95
e 83 96
e 83 98
e 83 100
e 84 85
e 84 86
e 84 87
e 84 89
e 84 91
e 84 92
e 84 94
e 84 95
e 84 96
e 84 97
e 84 98
e 84 99
e 85 86
e 85 87
e 85 88
e 85 89
e 85 91
e 85 95
e 85 96
e 85 97
e 85 99
e 85 100
e 86 87
e 86 88
e 86 89
e 86 92
e 86 93
e 86 96
e 86 98
e 86 99
e 87 88
e 87 90
e 87 91
e 87 95
e 87 96
e 87 97
e 87 99
e 88 89
e 88 90
e 88 91
e 88 92
e 88 99
e 88 100
e 89 91
e 89 93
e 89 94
e 89 97
e 89 99
e 89 100
e 90 94
e 90 100
e 91 92
e 91 97
e 92 94
e 92 96
e 92 97
e 92 99
e 93 95
e 93 96
e 93 97
e 93 99
e 94 95
e 94 96
e 94 97
e 94 98
e 94 99
e 94 100
e 95 97
e 95 98
e 95 100
e 96 97
e 96 98
e 96 99
e 96 100
e 97 99
e 97 100
e 98 99
